proyfinal/src/viki/013/andrea/andrea-localstore/experimentInOfficeAgust.take6/worker_3/9618cddb-1b69-41bc-b16d-02bbd638782b.als.cnf.out
Reading from standard input... Use '--help' for help.
============================[ Problem Statistics ]=============================
|                                                                             |
|  Number of variables:         87638                                         |
|  Number of clauses:          161767                                         |
|  Parse time:                   0.03 s                                       |
|                                                                             |
============================[ Search Statistics ]==============================
| Conflicts |          ORIGINAL         |          LEARNT          | Progress |
|           |    Vars  Clauses Literals |    Limit  Clauses Lit/Cl |          |
===============================================================================
|       100 |   63054   107655   269226 |    39473      100     40 | 28.052 % |
|       250 |   63053   107611   269136 |    43420      249     73 | 28.053 % |
|       475 |   43996    51135   130348 |    47762      459     58 | 49.798 % |
|       812 |   43996    51069   130176 |    52539      790     40 | 49.798 % |
|      1318 |   43996    51069   130176 |    57793     1296     34 | 49.798 % |
|      2077 |   43949    50892   129707 |    63572     2028     31 | 49.852 % |
|      3216 |   43949    50892   129707 |    69929     3167     29 | 49.852 % |
===============================================================================
restarts              : 18
conflicts             : 3430           (11704 /sec)
decisions             : 13217          (0.00 % random) (45098 /sec)
propagations          : 4236960        (14457111 /sec)
conflict literals     : 97727          (32.06 % deleted)
Memory used           : 20.61 MB
CPU time              : 0.293071 s

UNSATISFIABLE
